10J3M/DAT/10J3MNNL-13.dat
10 3
19.3853 19.3853
24.8466 24.8466
25.9841 25.9841
25.6775 25.6775
30.3647 30.3647
38.6451 38.6451
27.6584 27.6584
32.8288 32.8288
27.4725 27.4725
19.7936 19.7936
272.6566