10J3M/SOL/10J3MNNL-13.sol
solution status: optimal solution found
objective value:                     90.8855333333333
x#1#1                                               1 	(obj:0)
x#2#1                                               1 	(obj:0)
x#3#1                              0.0455098823254731 	(obj:0)
x#3#2                               0.954490117674526 	(obj:0)
x#4#1                                               1 	(obj:0)
x#5#2                               0.360717104620388 	(obj:0)
x#5#3                               0.639282895379613 	(obj:0)
x#6#3                                               1 	(obj:0)
x#7#2                                               1 	(obj:0)
x#8#3                                               1 	(obj:0)
x#9#2                                               1 	(obj:0)
x#10#1                                              1 	(obj:0)
z                                    90.8855333333333 	(obj:1)
